NAME : random144.914.tour
COMMENT : Length = 914
COMMENT : Found by LKH [Keld Helsgaun] Sat Nov 23 17:57:20 2024
TYPE : TOUR
DIMENSION : 144
TOUR_SECTION
1
25
84
101
140
47
69
49
70
75
24
52
10
60
83
117
18
82
97
99
4
124
143
20
112
113
85
62
95
12
138
65
102
76
59
53
111
81
118
61
71
15
58
68
104
67
28
110
87
3
45
37
91
128
38
21
11
39
46
80
137
9
142
14
141
127
32
23
78
48
130
136
22
121
73
6
40
57
131
114
44
7
77
93
92
5
8
120
88
116
16
66
2
90
98
34
74
42
115
89
106
36
27
55
122
13
86
43
72
94
129
139
126
100
35
79
123
51
105
125
31
50
107
119
134
33
135
132
17
54
103
56
29
30
64
63
108
133
144
109
96
41
19
26
-1
EOF
